objective value:                           4900050300
t_z1&2.7                                            1 	(obj:0)
t_z1&3.9                                            1 	(obj:0)
t_z1&4.8                                            1 	(obj:0)
t_z1&5.7                                            1 	(obj:0)
t_z1&6.7                                            1 	(obj:0)
t_z1&7.8                                            1 	(obj:0)
t_z1&8.12                                           1 	(obj:0)
t_z1&9.6                                            1 	(obj:0)
t_z2&3.6                                            1 	(obj:0)
t_z2&4.6                                            1 	(obj:0)
t_z2&5.8                                            1 	(obj:0)
t_z2&6.7                                            1 	(obj:0)
t_z2&7.7                                            1 	(obj:0)
t_z2&8.10                                           1 	(obj:0)
t_z2&9.4                                            1 	(obj:0)
t_z3&4.5                                            1 	(obj:0)
t_z3&5.5                                            1 	(obj:0)
t_z3&6.5                                            1 	(obj:0)
t_z3&7.6                                            1 	(obj:0)
t_z3&8.7                                            1 	(obj:0)
t_z3&9.4                                            1 	(obj:0)
t_z4&5.7                                            1 	(obj:0)
t_z4&6.8                                            1 	(obj:0)
t_z4&7.5                                            1 	(obj:0)
t_z4&8.9                                            1 	(obj:0)
t_z4&9.4                                            1 	(obj:0)
t_z5&6.7                                            1 	(obj:0)
t_z5&7.8                                            1 	(obj:0)
t_z5&8.9                                            1 	(obj:0)
t_z5&9.5                                            1 	(obj:0)
t_z6&7.7                                            1 	(obj:0)
t_z6&8.9                                            1 	(obj:0)
t_z6&9.5                                            1 	(obj:0)
t_z7&8.9                                            1 	(obj:0)
t_z7&9.5                                            1 	(obj:0)
t_z8&9.5                                            1 	(obj:0)
t_x3                                             3800 	(obj:2)
t_x4                                             3200 	(obj:2)
t_x5                                             2600 	(obj:2)
t_x6                                             2100 	(obj:2)
t_x7                                             1800 	(obj:2)
t_x8                                              300 	(obj:2)
t_x9                                             1200 	(obj:2)
t_lung                                           4900 	(obj:1000000)
t_y3                                              500 	(obj:1)
t_y4                                              800 	(obj:1)
t_y5                                              800 	(obj:1)
t_y6                                              600 	(obj:1)
t_y7                                              700 	(obj:1)
t_y8                                              500 	(obj:1)
t_y9                                              600 	(obj:1)
t_id20                                              1 	(obj:0)
t_x1                                             4200 	(obj:2)
t_x2                                             3700 	(obj:2)
